NAME 
ROWS
 N  OBJ
 L  R0      
 L  R1      
 L  R2      
 E  R3      
 E  R4      
 E  R5      
 E  R6      
 E  R7      
 E  R8      
 E  R9      
 E  R10     
 E  R11     
 E  R12     
 E  R13     
 E  R14     
 E  R15     
 E  R16     
 E  R17     
 E  R18     
 E  R19     
 E  R20     
 E  R21     
 E  R22     
COLUMNS
    MARKER    'MARKER'                 'INTORG'
    I0(13)    OBJ       106
    I0(13)    R0        122
    I0(13)    R1        -34
    I0(13)    R2        65
    I0(13)    R3        -1
    I0(13)    R4        7
    I0(13)    R5        -1
    I0(13)    R6        8
    I0(13)    R7        16
    I0(13)    R10       14
    I0(13)    R12       3
    I0(13)    R13       17
    I0(13)    R14       1
    I0(13)    R22       1
    I1(14)    OBJ       -126
    I1(14)    R0        -200
    I1(14)    R1        -194
    I1(14)    R2        82
    I1(14)    R3        1
    I1(14)    R4        3
    I1(14)    R5        11
    I1(14)    R6        6
    I1(14)    R7        6
    I1(14)    R10       7
    I1(14)    R11       4
    I1(14)    R12       5
    I1(14)    R13       4
    I1(14)    R14       12
    I1(14)    R22       1
    I2(12)    OBJ       -200
    I2(12)    R0        -101
    I2(12)    R1        -101
    I2(12)    R2        165
    I2(12)    R3        12
    I2(12)    R4        10
    I2(12)    R5        18
    I2(12)    R7        18
    I2(12)    R8        3
    I2(12)    R10       -1
    I2(12)    R12       14
    I2(12)    R14       13
    I2(12)    R22       1
    I3(10)    OBJ       148
    I3(10)    R0        48
    I3(10)    R1        78
    I3(10)    R2        34
    I3(10)    R4        11
    I3(10)    R7        3
    I3(10)    R10       16
    I3(10)    R12       4
    I3(10)    R13       7
    I3(10)    R14       11
    I3(10)    R22       1
    I4(16)    OBJ       -111
    I4(16)    R0        10
    I4(16)    R1        163
    I4(16)    R2        -114
    I4(16)    R3        19
    I4(16)    R4        3
    I4(16)    R5        17
    I4(16)    R6        4
    I4(16)    R7        16
    I4(16)    R8        11
    I4(16)    R9        7
    I4(16)    R10       16
    I4(16)    R11       2
    I4(16)    R12       9
    I4(16)    R13       10
    I4(16)    R14       18
    I4(16)    R22       1
    I5(13)    OBJ       -95
    I5(13)    R0        -38
    I5(13)    R1        -163
    I5(13)    R2        -6
    I5(13)    R4        11
    I5(13)    R5        8
    I5(13)    R6        13
    I5(13)    R7        8
    I5(13)    R8        15
    I5(13)    R9        6
    I5(13)    R11       5
    I5(13)    R13       1
    I5(13)    R14       11
    I5(13)    R22       1
    I6(12)    OBJ       -163
    I6(12)    R0        163
    I6(12)    R1        67
    I6(12)    R2        -3
    I6(12)    R5        18
    I6(12)    R7        5
    I6(12)    R8        -1
    I6(12)    R9        8
    I6(12)    R10       7
    I6(12)    R11       5
    I6(12)    R13       16
    I6(12)    R14       9
    I6(12)    R22       1
    I7(12)    OBJ       -143
    I7(12)    R0        -98
    I7(12)    R1        71
    I7(12)    R2        118
    I7(12)    R4        6
    I7(12)    R5        2
    I7(12)    R6        4
    I7(12)    R7        -1
    I7(12)    R10       18
    I7(12)    R11       18
    I7(12)    R13       10
    I7(12)    R14       14
    I7(12)    R22       1
    I8(14)    OBJ       -77
    I8(14)    R0        -101
    I8(14)    R1        170
    I8(14)    R2        -26
    I8(14)    R3        8
    I8(14)    R4        12
    I8(14)    R5        14
    I8(14)    R6        13
    I8(14)    R7        15
    I8(14)    R9        -1
    I8(14)    R10       15
    I8(14)    R11       6
    I8(14)    R12       9
    I8(14)    R14       4
    I8(14)    R22       1
    I9(13)    OBJ       2
    I9(13)    R0        177
    I9(13)    R1        59
    I9(13)    R2        74
    I9(13)    R3        18
    I9(13)    R4        12
    I9(13)    R5        17
    I9(13)    R7        4
    I9(13)    R8        16
    I9(13)    R10       13
    I9(13)    R11       2
    I9(13)    R12       16
    I9(13)    R14       7
    I9(13)    R22       1
    I10(14)   OBJ       176
    I10(14)   R0        9
    I10(14)   R1        -49
    I10(14)   R2        51
    I10(14)   R3        7
    I10(14)   R4        15
    I10(14)   R5        5
    I10(14)   R6        4
    I10(14)   R8        10
    I10(14)   R10       8
    I10(14)   R11       14
    I10(14)   R12       6
    I10(14)   R13       16
    I10(14)   R14       4
    I10(14)   R22       1
    I11(14)   OBJ       -114
    I11(14)   R0        110
    I11(14)   R1        -98
    I11(14)   R2        -153
    I11(14)   R3        14
    I11(14)   R4        18
    I11(14)   R5        11
    I11(14)   R6        7
    I11(14)   R7        5
    I11(14)   R8        8
    I11(14)   R9        -1
    I11(14)   R11       16
    I11(14)   R13       17
    I11(14)   R14       16
    I11(14)   R22       1
    MARKER    'MARKER'                 'INTEND'
    C12(18)   OBJ       -8
    C12(18)   R0        3
    C12(18)   R1        1
    C12(18)   R2        5
    C12(18)   R3        15
    C12(18)   R4        13
    C12(18)   R5        15
    C12(18)   R6        11
    C12(18)   R7        1
    C12(18)   R8        14
    C12(18)   R9        11
    C12(18)   R10       5
    C12(18)   R11       10
    C12(18)   R12       8
    C12(18)   R14       8
    C12(18)   R16       19
    C12(18)   R17       4
    C12(18)   R18       13
    C12(18)   R19       19
    C13(19)   OBJ       1
    C13(19)   R0        3
    C13(19)   R1        -8
    C13(19)   R2        5
    C13(19)   R3        4
    C13(19)   R4        15
    C13(19)   R5        15
    C13(19)   R7        8
    C13(19)   R8        15
    C13(19)   R10       1
    C13(19)   R11       1
    C13(19)   R13       17
    C13(19)   R14       18
    C13(19)   R15       4
    C13(19)   R16       2
    C13(19)   R17       -1
    C13(19)   R18       1
    C13(19)   R19       19
    C13(19)   R20       1
    C13(19)   R21       12
    C14(16)   OBJ       -1
    C14(16)   R0        4
    C14(16)   R1        -9
    C14(16)   R2        6
    C14(16)   R3        4
    C14(16)   R4        19
    C14(16)   R5        3
    C14(16)   R6        11
    C14(16)   R7        12
    C14(16)   R11       17
    C14(16)   R13       16
    C14(16)   R14       18
    C14(16)   R16       13
    C14(16)   R18       12
    C14(16)   R19       19
    C14(16)   R20       2
    C14(16)   R21       4
    C15(19)   R0        -8
    C15(19)   R1        2
    C15(19)   R2        -8
    C15(19)   R3        9
    C15(19)   R4        -1
    C15(19)   R5        7
    C15(19)   R6        8
    C15(19)   R8        13
    C15(19)   R9        17
    C15(19)   R10       19
    C15(19)   R11       2
    C15(19)   R12       5
    C15(19)   R13       13
    C15(19)   R14       4
    C15(19)   R16       16
    C15(19)   R17       9
    C15(19)   R19       13
    C15(19)   R20       18
    C15(19)   R21       -1
    C16(20)   OBJ       -2
    C16(20)   R0        1
    C16(20)   R1        -6
    C16(20)   R2        -6
    C16(20)   R3        2
    C16(20)   R4        17
    C16(20)   R5        2
    C16(20)   R6        11
    C16(20)   R7        6
    C16(20)   R8        14
    C16(20)   R9        10
    C16(20)   R10       17
    C16(20)   R12       12
    C16(20)   R14       2
    C16(20)   R15       5
    C16(20)   R16       12
    C16(20)   R17       14
    C16(20)   R18       5
    C16(20)   R19       15
    C16(20)   R20       18
    C16(20)   R21       9
    C17(18)   OBJ       6
    C17(18)   R0        1
    C17(18)   R1        1
    C17(18)   R2        -5
    C17(18)   R3        1
    C17(18)   R4        8
    C17(18)   R5        14
    C17(18)   R6        19
    C17(18)   R7        4
    C17(18)   R8        2
    C17(18)   R9        17
    C17(18)   R13       7
    C17(18)   R14       10
    C17(18)   R15       1
    C17(18)   R16       5
    C17(18)   R17       3
    C17(18)   R18       4
    C17(18)   R19       17
    C17(18)   R20       4
    C18(16)   OBJ       -6
    C18(16)   R0        -3
    C18(16)   R1        5
    C18(16)   R3        19
    C18(16)   R5        8
    C18(16)   R8        5
    C18(16)   R9        7
    C18(16)   R10       11
    C18(16)   R11       7
    C18(16)   R12       10
    C18(16)   R13       4
    C18(16)   R15       3
    C18(16)   R16       9
    C18(16)   R17       16
    C18(16)   R18       -1
    C18(16)   R20       12
    C18(16)   R21       2
    C19(16)   OBJ       -3
    C19(16)   R0        3
    C19(16)   R1        -1
    C19(16)   R2        8
    C19(16)   R3        4
    C19(16)   R4        1
    C19(16)   R6        7
    C19(16)   R7        1
    C19(16)   R8        18
    C19(16)   R11       10
    C19(16)   R12       11
    C19(16)   R13       15
    C19(16)   R15       4
    C19(16)   R16       18
    C19(16)   R18       1
    C19(16)   R20       6
    C19(16)   R21       4
    C20(1)    R3        1
    C21(1)    R4        1
    C22(1)    R5        1
    C23(1)    R6        1
    C24(1)    R7        1
    C25(1)    R8        1
    C26(1)    R9        1
    C27(1)    R10       1
    C28(1)    R11       1
    C29(1)    R12       1
    C30(1)    R13       1
    C31(1)    R14       1
    C32(1)    R15       1
    C33(1)    R16       1
    C34(1)    R17       1
    C35(1)    R18       1
    C36(1)    R19       1
    C37(1)    R20       1
    C38(1)    R21       1
    C39(1)    R22       1
RHS
    RHS1      R0        -1.3533698030634577e+02
    RHS1      R1        -6.2207877461707028e+01
    RHS1      R2        4.5598905908096231e+02
    RHS1      R3        88
    RHS1      R4        70
    RHS1      R5        70
    RHS1      R6        66
    RHS1      R7        96
    RHS1      R8        72
    RHS1      R9        97
    RHS1      R10       74
    RHS1      R11       53
    RHS1      R12       73
    RHS1      R13       89
    RHS1      R14       58
    RHS1      R15       82
    RHS1      R16       77
    RHS1      R17       76
    RHS1      R18       76
    RHS1      R19       65
    RHS1      R20       55
    RHS1      R21       50
    RHS1      R22       4
BOUNDS
 UP BND1      I0(13)    2
 UP BND1      I1(14)    2
 UP BND1      I2(12)    2
 UP BND1      I3(10)    2
 UP BND1      I4(16)    2
 UP BND1      I5(13)    2
 UP BND1      I6(12)    2
 UP BND1      I7(12)    2
 UP BND1      I8(14)    2
 UP BND1      I9(13)    2
 UP BND1      I10(14)   2
 UP BND1      I11(14)   2
ENDATA
